20 66 149
1 16 1
1 20 2
2 3 3
2 5 5
2 6 1
2 9 2
2 11 5
2 20 2
3 6 5
3 13 4
3 14 3
3 17 4
3 20 2
4 10 1
4 11 2
4 12 3
4 13 5
4 14 2
4 15 1
5 7 5
5 8 2
5 10 4
5 12 3
5 13 2
5 14 4
5 18 2
6 7 1
6 9 1
6 10 3
6 11 1
6 15 4
7 8 3
7 9 3
7 10 2
7 15 1
8 10 3
8 15 3
8 19 5
9 12 3
9 13 4
9 14 1
9 17 4
9 18 4
9 20 4
10 12 4
10 15 5
10 16 1
10 18 4
10 19 5
11 15 1
12 15 5
12 19 2
13 14 2
13 16 5
13 18 1
13 20 3
14 15 1
14 16 3
14 19 5
15 16 5
15 17 1
15 19 4
15 20 3
16 18 3
18 20 3
19 20 2
